 vasp.5.4.4.18Apr17-6-g9f103f2a35 (build Feb 18 2020 20:24:19) complex

 executed on             LinuxIFC date 2022.04.10  16:28:10

 INCAR:
 POTCAR:    PAW_PBE Ca_sv 06Sep2000
 POTCAR:    PAW_PBE S 06Sep2000
 POTCAR:    PAW_PBE O 08Apr2002
 POTCAR:    PAW_PBE H 15Jun2001

 POTCAR:    PAW_PBE Ca_sv 06Sep2000
   VRHFIN =Ca: 3s3p4s

   TITEL  = PAW_PBE Ca_sv 06Sep2000
   POMASS =   40.078; ZVAL   =   10.000    mass and valenz
   ENMAX  =  266.622; ENMIN  =  199.967 eV

 POTCAR:    PAW_PBE S 06Sep2000
   VRHFIN =S : s2p4

   TITEL  = PAW_PBE S 06Sep2000
   POMASS =   32.066; ZVAL   =    6.000    mass and valenz
   ENMAX  =  258.689; ENMIN  =  194.016 eV

 POTCAR:    PAW_PBE O 08Apr2002
   VRHFIN =O: s2p4

   TITEL  = PAW_PBE O 08Apr2002
   POMASS =   16.000; ZVAL   =    6.000    mass and valenz
   ENMAX  =  400.000; ENMIN  =  300.000 eV

 POTCAR:    PAW_PBE H 15Jun2001
   VRHFIN =H: ultrasoft test

   TITEL  = PAW_PBE H 15Jun2001
   POMASS =    1.000; ZVAL   =    1.000    mass and valenz
   ENMAX  =  250.000; ENMIN  =  200.000 eV

  PAW_PBE Ca_sv 06Sep2000               :
  PAW_PBE S 06Sep2000                   :
  PAW_PBE O 08Apr2002                   :
  PAW_PBE H 15Jun2001                   :

 POSCAR: Mode = 0062, Disp. # = 001, Step =  -0.0
  positions in direct lattice
 exchange correlation table for  LEXCH =        8
   RHO(1)=    0.500       N(1)  =     2000
   RHO(2)=  100.500       N(2)  =     4000

 ion  position               nearest neighbor table
   1  0.833  0.167  0.250-  15 2.34  13 2.34   7 2.38   5 2.38   6 2.55   8 2.55
   2  0.167  0.833  0.750-  16 2.34  14 2.34   8 2.38   6 2.38   7 2.55   5 2.55
   3  0.672  0.328  0.750-   7 1.48   5 1.48  11 1.49   9 1.49
   4  0.328  0.672  0.250-   8 1.48   6 1.48  12 1.49  10 1.49
   5  0.813  0.358  0.592-   3 1.48   1 2.38   2 2.55
   6  0.187  0.642  0.408-   4 1.48   2 2.38   1 2.55
   7  0.642  0.187  0.908-   3 1.48   1 2.38   2 2.55
   8  0.358  0.813  0.092-   4 1.48   2 2.38   1 2.55
   9  0.817  0.586  0.920-   3 1.49
  10  0.183  0.414  0.080-   4 1.49
  11  0.414  0.183  0.580-   3 1.49
  12  0.586  0.817  0.420-   4 1.49
  13  0.717  0.851  0.919-  21 0.98  17 0.99   1 2.34
  14  0.283  0.149  0.081-  22 0.98  18 0.99   2 2.34
  15  0.149  0.283  0.581-  23 0.98  19 0.99   1 2.34
  16  0.851  0.717  0.419-  24 0.98  20 0.99   2 2.34
  17  0.653  0.827  0.738-  13 0.99
  18  0.347  0.173  0.262-  14 0.99
  19  0.173  0.347  0.762-  15 0.99
  20  0.827  0.653  0.238-  16 0.99
  21  0.747  0.753  0.909-  13 0.98
  22  0.253  0.247  0.091-  14 0.98
  23  0.247  0.253  0.591-  15 0.98
  24  0.753  0.747  0.409-  16 0.98

  Warning from LATTYP: Got some problem with cell dimensions!
  Tried to take original basis but could not verify dimensions!
  LATTYP: Found a base centered monoclinic cell.
 ALAT       =     6.3248090984
 B/A-ratio  =     2.3734261303
 C/A-ratio  =     1.8129076419
 COS(beta)  =    -0.3470889405

  Lattice vectors:

 A1 = (   3.1623411915,   7.5057335768,  -0.0200235767)
 A2 = (   3.1623411211,  -7.5057336064,  -0.0200235767)
 A3 = ( -10.2823353268,   0.0000000481,  -5.0743960706)

Analysis of symmetry for initial positions (statically):
 Subroutine PRICEL returns:
 Original cell was already a primitive cell.

 Routine SETGRP: Setting up the symmetry group for a
 base centered monoclinic supercell.

 Subroutine GETGRP returns: Found  4 space group operations
 (whereof  2 operations were pure point group operations)
 out of a pool of  4 trial point group operations.

The static configuration has the point symmetry S_2 .
 The point group associated with its full space group is C_2h.

Analysis of symmetry for dynamics (positions and initial velocities):
 Subroutine PRICEL returns:
 Original cell was already a primitive cell.

[...]

The dynamic configuration has the point symmetry S_2 .
 The point group associated with its full space group is C_2h.

 Subroutine INISYM returns: Found  4 space group operations
 (whereof  2 operations are pure point group operations),
 and found     1 'primitive' translations

 KPOINTS: Automatic mesh

Automatic generation of k-mesh.
Space group operators:
 irot       det(A)        alpha          n_x          n_y          n_z        tau_x        tau_y        tau_z
    1     1.000000     0.000000     1.000000     0.000000     0.000000     0.000000     0.000000     0.000000
    2    -1.000000     0.000000     1.000000     0.000000     0.000000     0.000000     0.000000     0.000000
    3     1.000000   180.000000    -0.000000    -1.000000     0.000000    -1.000000    -1.000000    -0.500000
    4    -1.000000   180.000000    -0.000000    -1.000000     0.000000    -1.000000    -1.000000    -0.500000

 Subroutine IBZKPT returns following result:

 Found     39 irreducible k-points:

 Following reciprocal coordinates:
            Coordinates               Weight
  0.000000  0.000000  0.000000      1.000000
  0.200000 -0.000000 -0.000000      4.000000
  0.400000 -0.000000 -0.000000      4.000000
  0.200000  0.200000 -0.000000      2.000000
  0.400000  0.200000 -0.000000      4.000000
 -0.400000  0.200000  0.000000      4.000000
 -0.200000  0.200000  0.000000      2.000000
  0.400000  0.400000 -0.000000      2.000000
 -0.400000  0.400000  0.000000      2.000000
  0.000000 -0.000000  0.200000      2.000000
  0.200000 -0.000000  0.200000      4.000000
  0.400000 -0.000000  0.200000      4.000000
 -0.400000  0.000000  0.200000      4.000000
 -0.200000  0.000000  0.200000      4.000000
  0.200000  0.200000  0.200000      2.000000
  0.400000  0.200000  0.200000      4.000000
 -0.400000  0.200000  0.200000      4.000000
 -0.200000  0.200000  0.200000      4.000000
  0.400000  0.400000  0.200000      2.000000
 -0.400000  0.400000  0.200000      4.000000
 -0.200000  0.400000  0.200000      4.000000
 -0.400000 -0.400000  0.200000      2.000000
 -0.200000 -0.400000  0.200000      4.000000
 -0.200000 -0.200000  0.200000      2.000000
  0.000000 -0.000000  0.400000      2.000000
  0.200000 -0.000000  0.400000      4.000000
  0.400000 -0.000000  0.400000      4.000000
 -0.400000  0.000000  0.400000      4.000000
 -0.200000  0.000000  0.400000      4.000000
  0.200000  0.200000  0.400000      2.000000
  0.400000  0.200000  0.400000      4.000000
 -0.400000  0.200000  0.400000      4.000000
 -0.200000  0.200000  0.400000      4.000000
  0.400000  0.400000  0.400000      2.000000
 -0.400000  0.400000  0.400000      4.000000
 -0.200000  0.400000  0.400000      4.000000
 -0.400000 -0.400000  0.400000      2.000000
 -0.200000 -0.400000  0.400000      4.000000
 -0.200000 -0.200000  0.400000      2.000000

 Following cartesian coordinates:
            Coordinates               Weight
  0.000000  0.000000  0.000000      1.000000
  0.031714 -0.013323  0.014564      4.000000
  0.063429 -0.026646  0.029128      4.000000
  0.063429 -0.000000  0.029128      2.000000
  0.095143 -0.013323  0.043691      4.000000
 -0.031714  0.039969 -0.014564      4.000000
  0.000000  0.026646 -0.000000      2.000000
  0.126857 -0.000000  0.058255      2.000000
  0.000000  0.053293 -0.000000      2.000000
  0.000246 -0.000000  0.038914      2.000000
  0.031961 -0.013323  0.053478      4.000000
  0.063675 -0.026646  0.068042      4.000000
 -0.063182  0.026646  0.009787      4.000000
 -0.031468  0.013323  0.024351      4.000000
  0.063675 -0.000000  0.068042      2.000000
  0.095389 -0.013323  0.082606      4.000000
 -0.031468  0.039969  0.024351      4.000000
  0.000246  0.026646  0.038914      4.000000
  0.127104 -0.000000  0.097169      2.000000
  0.000246  0.053293  0.038914      4.000000
  0.031961  0.039969  0.053478      4.000000
 -0.126611  0.000000 -0.019341      2.000000
 -0.094897 -0.013323 -0.004777      4.000000
 -0.063182  0.000000  0.009787      2.000000
  0.000493 -0.000000  0.077829      2.000000
  0.032207 -0.013323  0.092392      4.000000
  0.063922 -0.026646  0.106956      4.000000
 -0.062936  0.026646  0.048701      4.000000
 -0.031222  0.013323  0.063265      4.000000
  0.063922 -0.000000  0.106956      2.000000
  0.095636 -0.013323  0.121520      4.000000
 -0.031222  0.039969  0.063265      4.000000
  0.000493  0.026646  0.077829      4.000000
  0.127350 -0.000000  0.136084      2.000000
  0.000493  0.053293  0.077829      4.000000
  0.032207  0.039969  0.092392      4.000000
 -0.126365  0.000000  0.019573      2.000000
 -0.094650 -0.013323  0.034137      4.000000
 -0.062936  0.000000  0.048701      2.000000

 Subroutine IBZKPT_HF returns following result:

 Found    125 k-points in 1st BZ
 the following    125 k-points will be used (e.g. in the exchange kernel)
 Following reciprocal coordinates:   # in IRBZ
  0.000000  0.000000  0.000000    0.00800000   1 t-inv F
  0.200000 -0.000000 -0.000000    0.00800000   2 t-inv F
  0.400000 -0.000000 -0.000000    0.00800000   3 t-inv F
  0.200000  0.200000 -0.000000    0.00800000   4 t-inv F
  0.400000  0.200000 -0.000000    0.00800000   5 t-inv F
 -0.400000  0.200000  0.000000    0.00800000   6 t-inv F
 -0.200000  0.200000  0.000000    0.00800000   7 t-inv F
  0.400000  0.400000 -0.000000    0.00800000   8 t-inv F
 -0.400000  0.400000  0.000000    0.00800000   9 t-inv F
  0.000000 -0.000000  0.200000    0.00800000  10 t-inv F
  0.200000 -0.000000  0.200000    0.00800000  11 t-inv F
  0.400000 -0.000000  0.200000    0.00800000  12 t-inv F
 -0.400000  0.000000  0.200000    0.00800000  13 t-inv F
 -0.200000  0.000000  0.200000    0.00800000  14 t-inv F
  0.200000  0.200000  0.200000    0.00800000  15 t-inv F
  0.400000  0.200000  0.200000    0.00800000  16 t-inv F
 -0.400000  0.200000  0.200000    0.00800000  17 t-inv F
 -0.200000  0.200000  0.200000    0.00800000  18 t-inv F
  0.400000  0.400000  0.200000    0.00800000  19 t-inv F
 -0.400000  0.400000  0.200000    0.00800000  20 t-inv F
 -0.200000  0.400000  0.200000    0.00800000  21 t-inv F
 -0.400000 -0.400000  0.200000    0.00800000  22 t-inv F
 -0.200000 -0.400000  0.200000    0.00800000  23 t-inv F
 -0.200000 -0.200000  0.200000    0.00800000  24 t-inv F
  0.000000 -0.000000  0.400000    0.00800000  25 t-inv F
  0.200000 -0.000000  0.400000    0.00800000  26 t-inv F
  0.400000 -0.000000  0.400000    0.00800000  27 t-inv F
 -0.400000  0.000000  0.400000    0.00800000  28 t-inv F
 -0.200000  0.000000  0.400000    0.00800000  29 t-inv F
  0.200000  0.200000  0.400000    0.00800000  30 t-inv F
  0.400000  0.200000  0.400000    0.00800000  31 t-inv F
 -0.400000  0.200000  0.400000    0.00800000  32 t-inv F
 -0.200000  0.200000  0.400000    0.00800000  33 t-inv F
  0.400000  0.400000  0.400000    0.00800000  34 t-inv F
 -0.400000  0.400000  0.400000    0.00800000  35 t-inv F
 -0.200000  0.400000  0.400000    0.00800000  36 t-inv F
 -0.400000 -0.400000  0.400000    0.00800000  37 t-inv F
 -0.200000 -0.400000  0.400000    0.00800000  38 t-inv F
 -0.200000 -0.200000  0.400000    0.00800000  39 t-inv F
 -0.200000  0.000000  0.000000    0.00800000   2 t-inv F
  0.000000 -0.200000  0.000000    0.00800000   2 t-inv F
 -0.000000  0.200000 -0.000000    0.00800000   2 t-inv F
 -0.400000  0.000000  0.000000    0.00800000   3 t-inv F
  0.000000 -0.400000  0.000000    0.00800000   3 t-inv F
[...]
      3.96775     -1.00511      2.12611        -0.007555      0.041968     -0.055208
      2.93285      1.30624      3.77367         0.003603      0.027668      0.027480
      1.02480     -1.30624      1.34077        -0.003603     -0.027668     -0.027480
     -0.15871      1.30624      3.91802        -0.003603      0.027668     -0.027480
      4.11637     -1.30624      1.19643         0.003603     -0.027668      0.027480
      2.59381      0.04129      4.65301         0.001624      0.014071      0.033040
      1.36385     -0.04129      0.46143        -0.001624     -0.014071     -0.033040
      0.18033      0.04129      3.03868        -0.001624      0.014071     -0.033040
      3.77732     -0.04129      2.07577         0.001624     -0.014071      0.033040
    total drift:                                0.000375      0.000574     -0.000224

  FREE ENERGIE OF THE ION-ELECTRON SYSTEM (eV)
  free  energy   TOTEN  =      -139.78702230 eV

  energy  without entropy=     -139.78702230  energy(sigma->0) =     -139.78702230

 Linear response reoptimize wavefunctions
 Linear response G [H, r] |phi>, progress :
  Direction:   1

----------------------------------------- Iteration    1(   1)  ---------------------------------------

  free energy    TOTEN  =      -400.33200568 eV

[...]

 Linear response G [H, r] |phi>, progress :
  Direction:   2

[...]

 Linear response G [H, r] |phi>, progress :
  Direction:   3

[...]

  free energy    TOTEN  =      -398.46625036 eV

[...]

 Linear response to external field (no local field effect), progress :
  Direction:   1
  Warning from LATTYP: Got some problem with cell dimensions!
  Tried to take original basis but could not verify dimensions!
  LATTYP: Found a base centered monoclinic cell.
 ALAT       =     6.3248090984
 B/A-ratio  =     2.3734261303
 C/A-ratio  =     1.8129076419
 COS(beta)  =    -0.3470889405

[...]

 Free energy of the ion-electron system (eV)
  -Hartree energ DENC   =         0.00000000
  -V(xc)+E(xc)   XCENC  =         0.00000000
  PAW double counting   =         0.00000000        0.00000000
  entropy T*S    EENTRO =         0.00000000
  eigenvalues    EBANDS =        -1.10213402
  free energy    TOTEN  =        -1.10213402 eV

  energy without entropy =       -1.10213402

[...]

 change of polarisation eV/A/(eV/A) component  1 :     2.251     0.010    -0.032
 dielectric tensor                  component  1 :     2.670     0.007    -0.024

[...]

The dynamic configuration has the point symmetry C_1 .
 The point group associated with its full space group is C_2 .

[...]

 Linear response to external field (no local field effect), progress :
  Direction:   3
  Warning from LATTYP: Got some problem with cell dimensions!
  Tried to take original basis but could not verify dimensions!
  LATTYP: Found a base centered monoclinic cell.
 ALAT       =     6.3248090984
 B/A-ratio  =     2.3734261303
 C/A-ratio  =     1.8129076419
 COS(beta)  =    -0.3470889405

[...]

 HEAD OF MICROSCOPIC STATIC DIELECTRIC TENSOR (INDEPENDENT PARTICLE, excluding Hartree and local field effects)
           2.669855     0.000000    -0.023679
           0.000000     2.696625     0.000000
          -0.023679     0.000000     2.700581

 Linear response to external field, progress :
  Direction:   1
  Warning from LATTYP: Got some problem with cell dimensions!
  Tried to take original basis but could not verify dimensions!
  LATTYP: Found a base centered monoclinic cell.
 ALAT       =     6.3248090984
 B/A-ratio  =     2.3734261303
 C/A-ratio  =     1.8129076419
 COS(beta)  =    -0.3470889405

[...]

         DFTD3 V3.0 Rev 1
 Edisp (eV)   -2.44972

[...]

 PIEZOELECTRIC TENSOR FIELD DIRECTION 1  (e Angst)
     0.00041 -0.00000 -0.00027           (  0.00000 -0.00000  0.00000)
    -0.00000 -0.00042  0.00000           ( -0.00000  0.00000 -0.00000)
    -0.00026  0.00000  0.00069           (  0.00000 -0.00000  0.00001)

 PIEZOELECTRIC TENSOR FIELD DIRECTION 1  (C/m^2)
     0.00003 -0.00000 -0.00002
    -0.00000 -0.00003  0.00000
    -0.00002  0.00000  0.00005

      POSITION         DIRECTION 1           BORN EFFECTIVE CHARGE    (rigid.aug.   ionic)
      2.57058     -4.99605      1.26860     2.75632  0.00003 -0.09990 ( -2.68387 10.00000)
      1.38707      4.99605      3.84584     2.75632 -0.00003 -0.09990 ( -2.68387 10.00000)
      1.38707     -2.58148      3.84584     3.68476  0.00003  0.01823 (  0.71967  6.00000)
      2.57058      2.58148      1.26860     3.68476 -0.00003  0.01823 (  0.71967  6.00000)
      2.30058     -3.42107      3.03001    -1.63629  0.40244  0.39807 ( -0.64748  6.00000)
      1.65707      3.42107      2.08444    -1.63626  0.40238  0.39801 ( -0.64748  6.00000)
      0.47356     -3.42107      4.66168    -1.63626 -0.40238  0.39801 ( -0.64748  6.00000)
      3.48409      3.42107      0.45276    -1.63629 -0.40244  0.39807 ( -0.64748  6.00000)
      2.26067     -1.73546      4.71535    -1.48204 -0.39716 -0.26755 ( -0.64137  6.00000)
      1.69699      1.73546      0.39909    -1.48208 -0.39716 -0.26757 ( -0.64137  6.00000)
      0.51347     -1.73546      2.97633    -1.48208  0.39716 -0.26757 ( -0.64137  6.00000)
      3.44418      1.73546      2.13811    -1.48204  0.39716 -0.26755 ( -0.64137  6.00000)
      2.78423      1.00511      4.70335    -0.90341 -0.14300 -0.01811 ( -0.67388  6.00000)
      1.17342     -1.00511      0.41109    -0.90346 -0.14297 -0.01803 ( -0.67388  6.00000)
     -0.01010      1.00511      2.98833    -0.90346  0.14297 -0.01803 ( -0.67388  6.00000)
      3.96775     -1.00511      2.12611    -0.90341  0.14300 -0.01811 ( -0.67388  6.00000)
      2.93285      1.30624      3.77367     0.37120  0.02219 -0.06656 ( -0.01846  1.00000)
      1.02480     -1.30624      1.34077     0.37120  0.02220 -0.06659 ( -0.01846  1.00000)
     -0.15871      1.30624      3.91802     0.37120 -0.02220 -0.06659 ( -0.01846  1.00000)
      4.11637     -1.30624      1.19643     0.37120 -0.02219 -0.06656 ( -0.01846  1.00000)
      2.59381      0.04129      4.65301     0.42878  0.20951 -0.00497 ( -0.01872  1.00000)
      1.36385     -0.04129      0.46143     0.42878  0.20952 -0.00497 ( -0.01872  1.00000)
      0.18033      0.04129      3.03868     0.42878 -0.20952 -0.00497 ( -0.01872  1.00000)
      3.77732     -0.04129      2.07577     0.42878 -0.20951 -0.00497 ( -0.01872  1.00000)
    total drift (improves with k-points):  -0.00502  0.00000  0.00013

[...]

The dynamic configuration has the point symmetry C_1 .
 The point group associated with its full space group is C_2 .

[...]

 Linear response to external field, progress :
  Direction:   3
  Warning from LATTYP: Got some problem with cell dimensions!
  Tried to take original basis but could not verify dimensions!
  LATTYP: Found a base centered monoclinic cell.
 ALAT       =     6.3248090984
 B/A-ratio  =     2.3734261303
 C/A-ratio  =     1.8129076419
 COS(beta)  =    -0.3470889405

[...]

----------------------------------------- Iteration    3(  15)  ---------------------------------------

 Broyden mixing:
  rms(total) = 0.57913E-06    rms(broyden)= 0.57907E-06
  rms(prec ) = 0.80449E-06
  weight for this iteration     100.00

 eigenvalues of (default mixing * dielectric matrix)
  average eigenvalue GAMMA=   1.6731
  3.2935  2.9295  2.6029  2.2295  2.1430  1.6975  1.4277  0.9725  0.9326  0.9326
  0.9012  0.9012  0.7858

 Free energy of the ion-electron system (eV)
  -Hartree energ DENC   =        -0.16268174
  -V(xc)+E(xc)   XCENC  =         0.00681074
  PAW double counting   =         0.37867161       -0.38060091
  entropy T*S    EENTRO =         0.00000000
  eigenvalues    EBANDS =        -0.94615653
  free energy    TOTEN  =        -1.10395683 eV

  energy without entropy =       -1.10395683

------------------------ aborting loop because EDIFF is reached ----------------------------------------

 change of polarisation eV/A/(eV/A) component  3 :    -0.031    -0.005     2.020
 dielectric tensor                  component  3 :    -0.023    -0.004     2.499

[...]

         DFTD3 V3.0 Rev 1
 Edisp (eV)   -2.44972

 E6    (eV) :    -1.6665
 E8    (eV) :    -0.7832
 % E8        : 31.97

 PIEZOELECTRIC TENSOR FIELD DIRECTION 3  (e Angst)
     0.00014 -0.00000 -0.00018           ( -0.00001  0.00000  0.00002)
    -0.00000 -0.00133  0.00000           (  0.00000 -0.00000 -0.00000)
    -0.00019  0.00000  0.00023           (  0.00002 -0.00000 -0.00003)

 PIEZOELECTRIC TENSOR FIELD DIRECTION 3  (C/m^2)
     0.00001 -0.00000 -0.00001
    -0.00000 -0.00009  0.00000
    -0.00001  0.00000  0.00002

      POSITION         DIRECTION 3           BORN EFFECTIVE CHARGE    (rigid.aug.   ionic)
      2.57058     -4.99605      1.26860     0.03689 -0.00005  2.48626 ( -2.68387 10.00000)
      1.38707      4.99605      3.84584     0.03689  0.00005  2.48626 ( -2.68387 10.00000)
      1.38707     -2.58148      3.84584     0.04658 -0.00001  3.30045 (  0.71967  6.00000)
      2.57058      2.58148      1.26860     0.04658  0.00001  3.30045 (  0.71967  6.00000)
      2.30058     -3.42107      3.03001     0.39924 -0.60029 -1.47669 ( -0.64748  6.00000)
      1.65707      3.42107      2.08444     0.39924 -0.60026 -1.47656 ( -0.64748  6.00000)
      0.47356     -3.42107      4.66168     0.39924  0.60026 -1.47656 ( -0.64748  6.00000)
      3.48409      3.42107      0.45276     0.39924  0.60029 -1.47669 ( -0.64748  6.00000)
      2.26067     -1.73546      4.71535    -0.28288 -0.50846 -1.51683 ( -0.64137  6.00000)
      1.69699      1.73546      0.39909    -0.28292 -0.50861 -1.51684 ( -0.64137  6.00000)
      0.51347     -1.73546      2.97633    -0.28292  0.50861 -1.51684 ( -0.64137  6.00000)
      3.44418      1.73546      2.13811    -0.28288  0.50846 -1.51683 ( -0.64137  6.00000)
      2.78423      1.00511      4.70335    -0.01057 -0.02869 -1.19070 ( -0.67388  6.00000)
      1.17342     -1.00511      0.41109    -0.01044 -0.02868 -1.19084 ( -0.67388  6.00000)
     -0.01010      1.00511      2.98833    -0.01044  0.02868 -1.19084 ( -0.67388  6.00000)
      3.96775     -1.00511      2.12611    -0.01057  0.02869 -1.19070 ( -0.67388  6.00000)
      2.93285      1.30624      3.77367    -0.17028 -0.30415  1.02320 ( -0.01846  1.00000)
      1.02480     -1.30624      1.34077    -0.17029 -0.30418  1.02326 ( -0.01846  1.00000)
     -0.15871      1.30624      3.91802    -0.17029  0.30418  1.02326 ( -0.01846  1.00000)
      4.11637     -1.30624      1.19643    -0.17028  0.30415  1.02320 ( -0.01846  1.00000)
      2.59381      0.04129      4.65301     0.02274  0.05155  0.26622 ( -0.01872  1.00000)
      1.36385     -0.04129      0.46143     0.02273  0.05156  0.26622 ( -0.01872  1.00000)
      0.18033      0.04129      3.03868     0.02273 -0.05156  0.26622 ( -0.01872  1.00000)
      3.77732     -0.04129      2.07577     0.02274 -0.05155  0.26622 ( -0.01872  1.00000)
    total drift (improves with k-points):   0.00007 -0.00000 -0.00572

[...]

 MACROSCOPIC STATIC DIELECTRIC TENSOR (including local field effects in DFT)
           2.490863     0.000000    -0.023154
           0.000000     2.491393     0.000000
          -0.023154     0.000000     2.498528

  Warning from LATTYP: Got some problem with cell dimensions!
  Tried to take original basis but could not verify dimensions!
  LATTYP: Found a base centered monoclinic cell.
 ALAT       =     6.3248090984
 B/A-ratio  =     2.3734261303
 C/A-ratio  =     1.8129076419
 COS(beta)  =    -0.3470889405

  Lattice vectors:

 A1 = (   3.1623411915,   7.5057335768,  -0.0200235767)
 A2 = (   3.1623411211,  -7.5057336064,  -0.0200235767)
 A3 = ( -10.2823353268,   0.0000000481,  -5.0743960706)

Analysis of symmetry for initial positions (statically):
 Subroutine PRICEL returns:
 Original cell was already a primitive cell.

[...]

The static configuration has the point symmetry S_2 .
 The point group associated with its full space group is C_2h.

Analysis of symmetry for dynamics (positions and initial velocities):
 Subroutine PRICEL returns:
 Original cell was already a primitive cell.

 Routine SETGRP: Setting up the symmetry group for a
 base centered monoclinic supercell.

 Subroutine GETGRP returns: Found  4 space group operations
 (whereof  2 operations were pure point group operations)
 out of a pool of  4 trial point group operations.

The dynamic configuration has the point symmetry S_2 .
 The point group associated with its full space group is C_2h.

 Subroutine INISYM returns: Found  4 space group operations
 (whereof  2 operations are pure point group operations),
 and found     1 'primitive' translations

 MACROSCOPIC STATIC DIELECTRIC TENSOR (including local field effects in DFT)
           2.490863     0.000000    -0.023154
           0.000000     2.491393     0.000000
          -0.023154     0.000000     2.498528

 PIEZOELECTRIC TENSOR  for field in x, y, z        (e  Angst)
          XX          YY          ZZ          XY          YZ          ZX
  x     0.00041    -0.00042     0.00069    -0.00000     0.00000    -0.00027
  y    -0.00013    -0.00040     0.00126    -0.00000     0.00000    -0.00003
  z     0.00014    -0.00133     0.00023    -0.00000     0.00000    -0.00018

 PIEZOELECTRIC TENSOR  for field in x, y, z        (C/m^2)
          XX          YY          ZZ          XY          YZ          ZX
  x     0.00000     0.00000     0.00000     0.00000     0.00000     0.00000
  y     0.00000     0.00000     0.00000     0.00000     0.00000     0.00000
  z     0.00000     0.00000     0.00000     0.00000     0.00000     0.00000

 BORN EFFECTIVE CHARGES (in e, cummulative output)
 ion    1
    1     2.75653     0.00003    -0.09991
    2    -0.00000     2.26386     0.00000
    3     0.03689    -0.00005     2.48650
 ion    2
    1     2.75653    -0.00003    -0.09991
    2    -0.00000     2.26390     0.00000
    3     0.03689     0.00005     2.48650
 ion    3
    1     3.68497     0.00003     0.01822
    2     0.00000     3.25169    -0.00000
    3     0.04657    -0.00001     3.30069
 ion    4
    1     3.68497    -0.00003     0.01822
    2     0.00000     3.25173    -0.00000
    3     0.04657     0.00001     3.30069
 ion    5
    1    -1.63608     0.40244     0.39806
    2     0.43452    -1.41689    -0.58888
    3     0.39924    -0.60029    -1.47645
 ion    6
    1    -1.63605     0.40238     0.39801
    2     0.43448    -1.41690    -0.58876
    3     0.39924    -0.60026    -1.47633
 ion    7
    1    -1.63605    -0.40238     0.39801
    2    -0.43452    -1.41689     0.58888
    3     0.39924     0.60026    -1.47633
 ion    8
    1    -1.63608    -0.40244     0.39806
    2    -0.43448    -1.41690     0.58876
    3     0.39924     0.60029    -1.47645
 ion    9
    1    -1.48183    -0.39716    -0.26755
    2    -0.37609    -1.55546    -0.51181
    3    -0.28288    -0.50846    -1.51659
 ion   10
    1    -1.48187    -0.39716    -0.26758
    2    -0.37602    -1.55554    -0.51184
    3    -0.28292    -0.50861    -1.51660
 ion   11
    1    -1.48187     0.39716    -0.26758
    2     0.37609    -1.55546     0.51181
    3    -0.28292     0.50861    -1.51660
 ion   12
    1    -1.48183     0.39716    -0.26755
    2     0.37602    -1.55554     0.51184
    3    -0.28288     0.50846    -1.51659
 ion   13
    1    -0.90320    -0.14300    -0.01812
    2    -0.14201    -1.25403     0.03867
    3    -0.01057    -0.02869    -1.19047
 ion   14
    1    -0.90325    -0.14297    -0.01803
    2    -0.14201    -1.25407     0.03873
    3    -0.01044    -0.02868    -1.19060
 ion   15
    1    -0.90325     0.14297    -0.01803
    2     0.14201    -1.25403    -0.03867
    3    -0.01044     0.02868    -1.19060
 ion   16
    1    -0.90320     0.14300    -0.01812
    2     0.14201    -1.25407    -0.03873
    3    -0.01057     0.02869    -1.19047
 ion   17
    1     0.37140     0.02219    -0.06656
    2     0.06904     0.40095    -0.32096
    3    -0.17029    -0.30415     1.02344
 ion   18
    1     0.37141     0.02220    -0.06660
    2     0.06903     0.40095    -0.32096
    3    -0.17029    -0.30418     1.02350
 ion   19
    1     0.37141    -0.02220    -0.06660
    2    -0.06904     0.40095     0.32096
    3    -0.17029     0.30418     1.02350
 ion   20
    1     0.37140    -0.02219    -0.06656
    2    -0.06903     0.40095     0.32096
    3    -0.17029     0.30415     1.02344
 ion   21
    1     0.42898     0.20951    -0.00497
    2     0.13958     1.06769    -0.06598
    3     0.02273     0.05155     0.26645
 ion   22
    1     0.42899     0.20952    -0.00497
    2     0.13958     1.06771    -0.06598
    3     0.02272     0.05156     0.26646
 ion   23
    1     0.42899    -0.20952    -0.00497
    2    -0.13958     1.06769     0.06598
    3     0.02272    -0.05156     0.26646
 ion   24
    1     0.42898    -0.20951    -0.00497
    2    -0.13958     1.06771     0.06598
    3     0.02273    -0.05155     0.26645